100
128
53
4
16
7
17
5
4
62
54
28
27
4
63
58
58
63
8
23
7
59
18
54
7
59
31
14
50
18
5
42
26
27
26
32
27
27
47
59
34
52
31
54
26
46
54
3
42
30
35
1
5
57
50
47
64
53
53
43
36
2
36
64
8
22
42
50
28
42
41
36
61
31
1
3
43
64
1
40
57
2
45
10
48
1
59
2
32
35
1
41
3
5
10
31
3
63
7
28
28
64